1 31 2
-323 -23 -443 -39 -364 -976 -961 -430 -527 -521 -426 -590 -937 -469 -689 -17 -903 -15 -882 -153 -843 -374 -34 -964 -408 -627 -747 -114 -346 -138 0 
-642 -882 -498 -947 -557 -103 -121 -655 -546 -513 -561 -363 -110 -571 -224 -891 -91 -923 -198 -788 -111 -639 -938 -29 -590 -423 -252 -843 -704 -769 0 
1084 966 1135 1039 1113 1244 1184 1091 1038 1164 976 877 1092 924 1067 866 1045 900 1051 1133 1114 1114 830 988 982 1057 1066 925 1017 1002 1 
15542 
